
Gurobi 11.0.1 (win64) logging started Mon Apr  1 12:47:51 2024

Set parameter LogFile to value "C:\Projetos\Job_Rotation_Algorithms\Outputs\GurobiLogs\gurobi_log-output-12_ton-c162-BorbaRittModel-NoExtraConstraint-2.log"
Gurobi Optimizer version 11.0.1 build v11.0.1rc0 (win64 - Windows 10.0 (19045.2))

CPU model: 11th Gen Intel(R) Core(TM) i7-1165G7 @ 2.80GHz, instruction set [SSE2|AVX|AVX2|AVX512]
Thread count: 4 physical cores, 8 logical processors, using up to 1 threads


Gurobi 11.0.1 (win64) logging started Mon Apr  1 21:35:40 2024

Set parameter LogFile to value "C:\Projetos\Job_Rotation_Algorithms\Outputs\GurobiLogs\gurobi_log-output-12_ton-c162-BorbaRittModel-NoExtraConstraint-2.log"
Gurobi Optimizer version 11.0.1 build v11.0.1rc0 (win64 - Windows 10.0 (19045.2))

CPU model: 11th Gen Intel(R) Core(TM) i7-1165G7 @ 2.80GHz, instruction set [SSE2|AVX|AVX2|AVX512]
Thread count: 4 physical cores, 8 logical processors, using up to 1 threads


Gurobi 11.0.1 (win64) logging started Thu Apr  4 23:33:15 2024

Set parameter LogFile to value "C:\Projetos\Job_Rotation_Algorithms\Outputs\GurobiLogs\gurobi_log-output-12_ton-c162-BorbaRittModel-NoExtraConstraint-2.log"
Gurobi Optimizer version 11.0.1 build v11.0.1rc0 (win64 - Windows 10.0 (19045.2))

CPU model: 11th Gen Intel(R) Core(TM) i7-1165G7 @ 2.80GHz, instruction set [SSE2|AVX|AVX2|AVX512]
Thread count: 4 physical cores, 8 logical processors, using up to 1 threads


Gurobi 11.0.1 (win64) logging started Sat Apr  6 13:02:45 2024

Set parameter LogFile to value "C:\Projetos\Job_Rotation_Algorithms\Outputs\GurobiLogs\gurobi_log-output-12_ton-c162-BorbaRittModel-NoExtraConstraint-2.log"
Gurobi Optimizer version 11.0.1 build v11.0.1rc0 (win64 - Windows 10.0 (19045.2))

CPU model: 11th Gen Intel(R) Core(TM) i7-1165G7 @ 2.80GHz, instruction set [SSE2|AVX|AVX2|AVX512]
Thread count: 4 physical cores, 8 logical processors, using up to 1 threads


Gurobi 11.0.1 (win64) logging started Sun Apr  7 02:35:42 2024

Set parameter LogFile to value "C:\Projetos\Job_Rotation_Algorithms\Outputs\GurobiLogs\gurobi_log-output-12_ton-c162-BorbaRittModel-NoExtraConstraint-2.log"
Gurobi Optimizer version 11.0.1 build v11.0.1rc0 (win64 - Windows 10.0 (19045.2))

CPU model: 11th Gen Intel(R) Core(TM) i7-1165G7 @ 2.80GHz, instruction set [SSE2|AVX|AVX2|AVX512]
Thread count: 4 physical cores, 8 logical processors, using up to 1 threads


Gurobi 11.0.1 (win64) logging started Sun Apr  7 09:48:38 2024

Set parameter LogFile to value "C:\Projetos\Job_Rotation_Algorithms\Outputs\GurobiLogs\gurobi_log-output-12_ton-c162-BorbaRittModel-NoExtraConstraint-2.log"
Gurobi Optimizer version 11.0.1 build v11.0.1rc0 (win64 - Windows 10.0 (19045.2))

CPU model: 11th Gen Intel(R) Core(TM) i7-1165G7 @ 2.80GHz, instruction set [SSE2|AVX|AVX2|AVX512]
Thread count: 4 physical cores, 8 logical processors, using up to 1 threads


Gurobi 11.0.1 (win64) logging started Tue Apr  9 08:07:12 2024

Set parameter LogFile to value "C:\Projetos\Job_Rotation_Algorithms\Outputs\GurobiLogs\gurobi_log-output-12_ton-c162-BorbaRittModel-NoExtraConstraint-2.log"
Gurobi Optimizer version 11.0.1 build v11.0.1rc0 (win64 - Windows 10.0 (19045.2))

CPU model: 11th Gen Intel(R) Core(TM) i7-1165G7 @ 2.80GHz, instruction set [SSE2|AVX|AVX2|AVX512]
Thread count: 4 physical cores, 8 logical processors, using up to 1 threads


Gurobi 11.0.1 (win64) logging started Wed Apr 10 17:36:51 2024

Set parameter LogFile to value "C:\Projetos\Job_Rotation_Algorithms\Outputs\GurobiLogs\gurobi_log-output-12_ton-c162-BorbaRittModel-NoExtraConstraint-2.log"
Gurobi Optimizer version 11.0.1 build v11.0.1rc0 (win64 - Windows 10.0 (19045.2))

CPU model: 11th Gen Intel(R) Core(TM) i7-1165G7 @ 2.80GHz, instruction set [SSE2|AVX|AVX2|AVX512]
Thread count: 4 physical cores, 8 logical processors, using up to 1 threads


Gurobi 11.0.1 (win64) logging started Thu Apr 11 01:42:10 2024

Set parameter LogFile to value "C:\Projetos\Job_Rotation_Algorithms\Outputs\GurobiLogs\gurobi_log-output-12_ton-c162-BorbaRittModel-NoExtraConstraint-2.log"
Gurobi Optimizer version 11.0.1 build v11.0.1rc0 (win64 - Windows 10.0 (19045.2))

CPU model: 11th Gen Intel(R) Core(TM) i7-1165G7 @ 2.80GHz, instruction set [SSE2|AVX|AVX2|AVX512]
Thread count: 4 physical cores, 8 logical processors, using up to 1 threads


Gurobi 11.0.1 (win64) logging started Sun Apr 21 02:58:43 2024

Set parameter LogFile to value "C:\Projetos\Job_Rotation_Algorithms\Outputs\GurobiLogs\gurobi_log-output-12_ton-c162-BorbaRittModel-NoExtraConstraint-2.log"
Gurobi Optimizer version 11.0.1 build v11.0.1rc0 (win64 - Windows 10.0 (19045.2))

CPU model: 11th Gen Intel(R) Core(TM) i7-1165G7 @ 2.80GHz, instruction set [SSE2|AVX|AVX2|AVX512]
Thread count: 4 physical cores, 8 logical processors, using up to 1 threads


Gurobi 11.0.1 (win64) logging started Fri Apr 26 07:40:43 2024

Set parameter LogFile to value "C:\Projetos\Job_Rotation_Algorithms\Outputs\GurobiLogs\gurobi_log-output-12_ton-c162-BorbaRittModel-NoExtraConstraint-2.log"
Gurobi Optimizer version 11.0.1 build v11.0.1rc0 (win64 - Windows 10.0 (19045.2))

CPU model: 11th Gen Intel(R) Core(TM) i7-1165G7 @ 2.80GHz, instruction set [SSE2|AVX|AVX2|AVX512]
Thread count: 4 physical cores, 8 logical processors, using up to 1 threads


Gurobi 11.0.1 (win64) logging started Sat Apr 27 04:32:19 2024

Set parameter LogFile to value "C:\Projetos\Job_Rotation_Algorithms\Outputs\GurobiLogs\gurobi_log-output-12_ton-c162-BorbaRittModel-NoExtraConstraint-2.log"
Gurobi Optimizer version 11.0.1 build v11.0.1rc0 (win64 - Windows 10.0 (19045.2))

CPU model: 11th Gen Intel(R) Core(TM) i7-1165G7 @ 2.80GHz, instruction set [SSE2|AVX|AVX2|AVX512]
Thread count: 4 physical cores, 8 logical processors, using up to 1 threads


Gurobi 11.0.1 (win64) logging started Sat Apr 27 14:50:16 2024

Set parameter LogFile to value "C:\Projetos\Job_Rotation_Algorithms\Outputs\GurobiLogs\gurobi_log-output-12_ton-c162-BorbaRittModel-NoExtraConstraint-2.log"
Gurobi Optimizer version 11.0.1 build v11.0.1rc0 (win64 - Windows 10.0 (19045.2))

CPU model: 11th Gen Intel(R) Core(TM) i7-1165G7 @ 2.80GHz, instruction set [SSE2|AVX|AVX2|AVX512]
Thread count: 4 physical cores, 8 logical processors, using up to 1 threads


Gurobi 11.0.1 (win64) logging started Sun Apr 28 16:26:09 2024

Set parameter LogFile to value "C:\Projetos\Job_Rotation_Algorithms\Outputs\GurobiLogs\gurobi_log-output-12_ton-c162-BorbaRittModel-NoExtraConstraint-2.log"
Gurobi Optimizer version 11.0.1 build v11.0.1rc0 (win64 - Windows 10.0 (19045.2))

CPU model: 11th Gen Intel(R) Core(TM) i7-1165G7 @ 2.80GHz, instruction set [SSE2|AVX|AVX2|AVX512]
Thread count: 4 physical cores, 8 logical processors, using up to 1 threads

WLS license 901038 - registered to Bitka Analytics
Optimize a model with 12028 rows, 1835 columns and 37737 nonzeros
Model fingerprint: 0xeeaaa70f
Variable types: 2 continuous, 1833 integer (1833 binary)
Coefficient statistics:
  Matrix range     [1e+00, 2e+02]
  Objective range  [1e+00, 1e+00]
  Bounds range     [1e+00, 3e+02]
  RHS range        [1e+00, 3e+02]
Presolve removed 1 rows and 1 columns
Presolve time: 0.06s
Presolved: 12027 rows, 1834 columns, 37735 nonzeros
Variable types: 0 continuous, 1834 integer (1833 binary)
Root relaxation presolved: 12027 rows, 1834 columns, 37735 nonzeros


Root relaxation: objective 1.400000e+02, 2439 iterations, 0.22 seconds (0.26 work units)

    Nodes    |    Current Node    |     Objective Bounds      |     Work
 Expl Unexpl |  Obj  Depth IntInf | Incumbent    BestBd   Gap | It/Node Time

     0     0  140.00000    0  440          -  140.00000      -     -    0s
     0     0  140.00000    0  717          -  140.00000      -     -    1s
     0     0  140.00000    0  677          -  140.00000      -     -    1s
     0     0  140.00000    0  408          -  140.00000      -     -    2s
     0     0  140.00000    0  441          -  140.00000      -     -    3s
     0     0  140.00000    0  468          -  140.00000      -     -    3s
     0     0  140.00000    0  494          -  140.00000      -     -    3s
     0     0  140.00000    0  502          -  140.00000      -     -    4s
     0     0  140.00000    0  496          -  140.00000      -     -    4s
     0     0  140.00000    0  461          -  140.00000      -     -    5s
     0     0  140.00000    0  461          -  140.00000      -     -    6s
     0     2  140.00000    0  379          -  140.00000      -     -    8s
   134   121  140.00000   41  302          -  140.00000      -   115   10s
   653   431  140.00000   31  461          -  140.00000      -   108   15s
   658   434  140.00000   27  378          -  140.00000      -   107   20s
   667   440  140.00000   55  443          -  140.00000      -   105   25s
   675   446  140.00000   17  283          -  140.00000      -   104   30s
   743   491 infeasible   47               -  140.00000      -   101   35s
   908   553 infeasible   68               -  140.00000      -   123   40s
  1030   585 infeasible   72               -  140.00000      -   138   45s
  1210   607  134.52129   69  341          -  140.00000      -   158   50s
  1469   660  140.00000   76  253          -  140.00000      -   163   55s
  1729   691  139.00000   86  161          -  140.00000      -   163   60s
  1897   703  139.00000   86  228          -  140.00000      -   178   65s
  2068   729  140.00000   86  256          -  140.00000      -   184   70s
  2257   794  139.00000   91  162          -  140.00000      -   185   75s
  2485   916  140.00000   96  196          -  140.00000      -   190   80s
  2712  1041  140.00000   84  210          -  140.00000      -   195   85s
  2955  1188  139.00000   89  251          -  140.00000      -   199   90s
  3231  1334  140.00000   75  200          -  140.00000      -   202   95s
  3439  1366  139.00000   83  258          -  140.00000      -   209  100s
  3624  1413 infeasible   78               -  140.00000      -   213  105s
  3694  1425  139.00000   64  353          -  140.00000      -   216  110s
  3795  1458 infeasible  101               -  140.00000      -   225  115s
  3988  1539 infeasible   92               -  140.00000      -   228  120s
  4152  1617  140.00000   72  326          -  140.00000      -   233  125s
  4317  1676  140.00000   86  277          -  140.00000      -   238  130s
  4443  1712 infeasible  109               -  140.00000      -   246  135s
  4565  1768 infeasible   91               -  140.00000      -   251  140s
  4705  1804  139.00000   78  334          -  140.00000      -   257  145s
  4928  1905  140.00000   68  234          -  140.00000      -   256  150s
  5087  1974  140.00000   82  159          -  140.00000      -   256  155s
  5262  2033  140.00000   91  177          -  140.00000      -   260  160s
  5509  2068  140.00000   88  247          -  140.00000      -   261  165s
  5684  2119  139.00000   83  295          -  140.00000      -   265  170s
  5936  2261 infeasible  105               -  140.00000      -   263  175s
  6092  2303 infeasible   65               -  140.00000      -   267  180s
  6314  2359  140.00000   81  170          -  140.00000      -   268  185s
  6471  2408  140.00000   44  261          -  140.00000      -   270  191s
  6698  2591  140.00000   42  381          -  140.00000      -   265  195s
  7082  2917  140.00000   43  326          -  140.00000      -   256  200s
  7351  3140 infeasible   59               -  140.00000      -   254  205s
  7607  3320  140.00000   53  326          -  140.00000      -   252  210s
  7971  3596  140.00000   57  296          -  140.00000      -   249  215s
  8460  3965  140.00000   74  292          -  140.00000      -   241  220s
  8887  4250 infeasible   81               -  140.00000      -   237  225s
  9258  4519  140.00000   47  292          -  140.00000      -   235  230s
  9687  4840  140.00000   37  196          -  140.00000      -   229  236s
 10054  5093  140.00000   36  325          -  140.00000      -   225  240s
 10202  5219  140.00000   63  287          -  140.00000      -   224  299s
 10258  5237 infeasible   82               -  140.00000      -   224  300s
 10534  5427  140.00000   77  298          -  140.00000      -   223  305s
 10967  5748 infeasible   57               -  140.00000      -   219  310s
 11394  6055  140.00000   75  302          -  140.00000      -   216  315s
 11749  6312 infeasible   65               -  140.00000      -   215  320s
 12185  6646  140.00000   45  235          -  140.00000      -   212  325s
 12484  6869  140.00000   65  272          -  140.00000      -   212  330s
 12770  7059 infeasible   72               -  140.00000      -   212  335s
 12850  7115  140.00000   63  265          -  140.00000      -   212  340s
 13198  7383  140.00000   70  272          -  140.00000      -   210  345s
 13638  7669  140.00000   42  215          -  140.00000      -   209  350s
 14086  7919  140.00000   32  215          -  140.00000      -   207  355s
 14473  8122 infeasible   78               -  140.00000      -   207  360s
 14782  8251  140.00000   95  169          -  140.00000      -   207  365s
 15069  8326  138.92746   86  166          -  140.00000      -   207  370s
 15251  8382 infeasible   65               -  140.00000      -   209  375s
 15373  8412 infeasible   73               -  140.00000      -   211  380s
 15674  8575 infeasible   80               -  140.00000      -   211  385s
 16061  8846  140.00000   70  298          -  140.00000      -   210  390s
 16332  9033 infeasible   81               -  140.00000      -   211  395s
 16529  9086 infeasible   90               -  140.00000      -   212  400s
 16889  9244 infeasible   99               -  140.00000      -   211  405s
 17269  9436  140.00000  101  294          -  140.00000      -   211  410s
 17579  9602  140.00000   75  237          -  140.00000      -   211  415s
 17792  9693 infeasible   89               -  140.00000      -   212  420s
 17925  9734  140.00000   61  327          -  140.00000      -   214  425s
 18069  9836  140.00000   73  312          -  140.00000      -   214  430s
 18370  9975 infeasible   93               -  140.00000      -   214  435s
 18580 10067  140.00000   99  219          -  140.00000      -   215  440s
 18822 10169 infeasible   96               -  140.00000      -   216  445s
 19189 10410  140.00000   75  361          -  140.00000      -   215  450s
 19408 10553  140.00000   20  282          -  140.00000      -   215  455s
 19685 10778  140.00000   61  307          -  140.00000      -   214  460s
 20140 11123  140.00000   68  333          -  140.00000      -   213  465s
 20366 11223  140.00000   99  294          -  140.00000      -   214  470s
 20517 11260  140.00000   99  302          -  140.00000      -   216  475s
 20646 11305  140.00000   75  330          -  140.00000      -   217  483s
 20711 11316  140.00000   77  240          -  140.00000      -   217  485s
 20979 11440  140.00000   83  210          -  140.00000      -   218  490s
 21190 11549 infeasible   89               -  140.00000      -   219  495s
 21360 11609  140.00000   76  282          -  140.00000      -   221  500s
 21584 11691  140.00000   93  261          -  140.00000      -   222  505s
 21804 11715  140.00000   67  156          -  140.00000      -   223  510s
 22058 11859  140.00000   74  145          -  140.00000      -   223  515s
 22369 11974  140.00000  102  218          -  140.00000      -   223  520s
 22523 11996 infeasible   91               -  140.00000      -   224  525s
 22728 12005 infeasible   99               -  140.00000      -   226  530s
 22944 12051  139.00000   92  292          -  140.00000      -   227  535s
 23135 12114 infeasible   91               -  140.00000      -   228  540s
 23303 12166 infeasible  104               -  140.00000      -   229  545s
 23597 12186 infeasible  100               -  140.00000      -   229  550s
 23820 12237  140.00000   99  300          -  140.00000      -   230  555s
 24304 12265 infeasible  117               -  140.00000      -   228  560s
 24719 12300  140.00000  109  168          -  140.00000      -   227  565s
 24987 12314  140.00000  105  162          -  140.00000      -   228  570s
 25200 12347 infeasible  107               -  140.00000      -   229  575s
 25230 12349 infeasible   96               -  140.00000      -   229  580s
 25454 12341  140.00000   93  212          -  140.00000      -   230  585s
 25649 12370 infeasible  107               -  140.00000      -   231  590s
 25830 12405 infeasible  103               -  140.00000      -   232  595s
 26008 12395 infeasible   98               -  140.00000      -   233  600s
 26178 12375 infeasible  114               -  140.00000      -   235  605s
 26407 12402  140.00000   99  102          -  140.00000      -   235  610s
 26634 12427  140.00000  100  132          -  140.00000      -   236  615s
 26869 12418  140.00000   92  138          -  140.00000      -   237  620s
 27261 12450 infeasible  112               -  140.00000      -   236  625s
 27545 12452 infeasible   92               -  140.00000      -   236  630s
 27743 12500  140.00000   85  207          -  140.00000      -   237  635s
 27878 12503 infeasible   96               -  140.00000      -   239  640s
 28098 12549  140.00000  109  200          -  140.00000      -   240  645s
 28309 12552  140.00000   99  202          -  140.00000      -   241  650s
 28491 12570  140.00000  108  279          -  140.00000      -   242  655s
 28619 12578  140.00000   79  229          -  140.00000      -   243  660s
 28826 12587  140.00000   96  191          -  140.00000      -   244  665s
 28902 12629  140.00000   74  252          -  140.00000      -   244  670s
 29077 12722  140.00000   74  114          -  140.00000      -   245  675s
 29285 12810  140.00000   83  282          -  140.00000      -   246  680s
 29426 12833  140.00000   78  277          -  140.00000      -   247  685s
 29636 12873  140.00000   90  288          -  140.00000      -   247  690s
 29794 12917 infeasible   92               -  140.00000      -   248  695s
 30025 13022 infeasible   98               -  140.00000      -   249  700s
 30202 13029 infeasible  101               -  140.00000      -   250  705s
 30456 13109 infeasible   90               -  140.00000      -   250  710s
 30745 13142  140.00000  100  223          -  140.00000      -   250  715s
 30904 13145 infeasible   88               -  140.00000      -   251  720s
 31041 13176  140.00000   91  303          -  140.00000      -   252  725s
 31122 13195  139.00000   89  272          -  140.00000      -   253  730s
 31210 13211  140.00000   94  267          -  140.00000      -   253  738s
 31229 13214  140.00000   99  218          -  140.00000      -   253  740s
 31371 13242 infeasible   93               -  140.00000      -   254  745s
 31485 13250  140.00000   83  287          -  140.00000      -   255  750s
 31607 13264 infeasible   99               -  140.00000      -   256  755s
 31718 13267 infeasible   87               -  140.00000      -   256  760s
 31842 13269  140.00000  102  194          -  140.00000      -   257  765s
 31987 13296  140.00000   90  192          -  140.00000      -   258  770s
 32113 13300  140.00000  102  223          -  140.00000      -   259  775s
 32238 13297  140.00000  104  256          -  140.00000      -   260  780s
 32372 13301 infeasible   96               -  140.00000      -   261  785s
 32505 13314  140.00000   87  259          -  140.00000      -   262  790s
 32640 13351 infeasible   80               -  140.00000      -   263  795s
 32768 13367  140.00000   79  210          -  140.00000      -   263  800s
 32887 13368  140.00000   77  227          -  140.00000      -   264  805s
 33019 13396  140.00000   80  250          -  140.00000      -   265  810s
 33131 13430  140.00000   70  282          -  140.00000      -   266  815s
 33327 13548  140.00000   83  256          -  140.00000      -   266  820s
 33356 13559  140.00000   90  239          -  140.00000      -   266  826s
 33460 13585 infeasible   86               -  140.00000      -   267  830s
 33610 13657  140.00000   97  259          -  140.00000      -   267  835s
 33738 13703  140.00000   95  250          -  140.00000      -   268  840s
 33874 13743  140.00000   90  245          -  140.00000      -   269  845s
 34007 13780 infeasible  104               -  140.00000      -   270  850s
 34150 13815  140.00000   95  190          -  140.00000      -   270  855s
 34289 13816  140.00000   94  166          -  140.00000      -   271  860s
 34399 13826  140.00000   93  275          -  140.00000      -   272  865s
 34552 13877 infeasible   92               -  140.00000      -   272  870s
 34694 13883 infeasible   90               -  140.00000      -   273  875s
 34858 13895  140.00000   87  240          -  140.00000      -   274  880s
 35146 13971 infeasible  109               -  140.00000      -   273  885s
 35421 13964 infeasible   94               -  140.00000      -   273  890s
 35601 14008 infeasible   92               -  140.00000      -   273  895s
 35791 14020  140.00000   98  223          -  140.00000      -   274  900s
 36001 14024 infeasible   90               -  140.00000      -   274  905s
 36188 14053 infeasible   92               -  140.00000      -   274  910s
 36453 14108  140.00000   91  223          -  140.00000      -   274  915s
 36663 14184  140.00000  102  121          -  140.00000      -   274  920s
 36860 14247  140.00000   93  230          -  140.00000      -   274  925s
 37051 14320 infeasible   96               -  140.00000      -   274  930s
 37117 14342  140.00000   96  215          -  140.00000      -   274  936s
 37218 14363 infeasible  100               -  140.00000      -   275  940s
 37342 14383  140.00000   97  241          -  140.00000      -   276  945s
 37479 14402  140.00000   79  223          -  140.00000      -   276  950s
 37630 14479  140.00000   96  238          -  140.00000      -   277  955s
 37811 14524 infeasible   95               -  140.00000      -   277  960s
 37935 14542 infeasible  100               -  140.00000      -   278  965s
 38059 14574  140.00000   92  221          -  140.00000      -   278  970s
 38187 14616  140.00000   98  142          -  140.00000      -   279  975s
 38349 14644 infeasible   88               -  140.00000      -   279  980s
 38452 14677 infeasible   89               -  140.00000      -   280  985s
 38629 14682 infeasible   94               -  140.00000      -   280  990s
 38754 14693 infeasible   97               -  140.00000      -   281  995s
 38879 14714 infeasible   88               -  140.00000      -   282 1000s
 39016 14731  140.00000   86  299          -  140.00000      -   282 1005s
 39167 14760  140.00000  106  230          -  140.00000      -   283 1010s
 39240 14753  140.00000   83  210          -  140.00000      -   283 1017s
 39334 14773 infeasible   96               -  140.00000      -   283 1020s
 39487 14818  140.00000   97  213          -  140.00000      -   283 1025s
 39634 14847  140.00000  102  192          -  140.00000      -   284 1030s
 39794 14885 infeasible   99               -  140.00000      -   285 1035s
 39962 14903 infeasible  113               -  140.00000      -   285 1040s
 40109 14920 infeasible  103               -  140.00000      -   285 1045s
 40303 14924 infeasible  105               -  140.00000      -   286 1050s
 40526 14953  140.00000   94  244          -  140.00000      -   286 1055s
 40703 14982  140.00000  102  216          -  140.00000      -   286 1060s
 40843 15000 infeasible  100               -  140.00000      -   287 1065s
 41001 14980 infeasible   90               -  140.00000      -   287 1070s
 41168 15057  140.00000  102  320          -  140.00000      -   288 1075s
 41290 15081 infeasible   95               -  140.00000      -   288 1080s
 41390 15091  140.00000   93  239          -  140.00000      -   289 1085s
 41510 15097 infeasible   96               -  140.00000      -   290 1090s
 41642 15125  140.00000  102  126          -  140.00000      -   290 1095s
 41780 15123 infeasible  100               -  140.00000      -   291 1100s
 41908 15143 infeasible   98               -  140.00000      -   291 1105s
 42033 15156  140.00000   95  280          -  140.00000      -   292 1110s
 42074 15155  140.00000   98  158          -  140.00000      -   292 1115s
 42187 15168 infeasible   95               -  140.00000      -   293 1120s
 42332 15219  140.00000   87  217          -  140.00000      -   293 1125s
 42468 15229  140.00000   93  272          -  140.00000      -   294 1130s
 42604 15235  140.00000   86  311          -  140.00000      -   294 1135s
 42772 15335 infeasible  112               -  140.00000      -   294 1140s
 42939 15412 infeasible   80               -  140.00000      -   295 1145s
 43124 15465  140.00000   78  141          -  140.00000      -   295 1150s
 43310 15489 infeasible  100               -  140.00000      -   295 1155s
 43470 15505 infeasible  102               -  140.00000      -   296 1160s
 43569 15516  140.00000   95  200          -  140.00000      -   296 1165s
 43740 15571 infeasible  103               -  140.00000      -   297 1170s
 43920 15607 infeasible   96               -  140.00000      -   297 1175s
 44051 15620 infeasible   92               -  140.00000      -   297 1180s
 44164 15633  140.00000   98  229          -  140.00000      -   298 1185s
 44309 15650 infeasible   95               -  140.00000      -   298 1190s
 44446 15703  140.00000   89  272          -  140.00000      -   299 1195s
 44619 15752 infeasible  101               -  140.00000      -   299 1200s
 44785 15792 infeasible   90               -  140.00000      -   299 1205s
 44812 15779  140.00000   97  203          -  140.00000      -   299 1210s
 44910 15785  140.00000   93  281          -  140.00000      -   300 1215s
 45108 15807 infeasible  101               -  140.00000      -   300 1220s
 45302 15847  140.00000   99  178          -  140.00000      -   300 1225s
 45469 15852  140.00000   97  171          -  140.00000      -   300 1230s
 45609 15894  140.00000  101  176          -  140.00000      -   301 1235s
 45777 15906  140.00000   90  292          -  140.00000      -   301 1240s
 45917 15918  140.00000  102  292          -  140.00000      -   301 1245s
 46053 15946  140.00000  100  190          -  140.00000      -   302 1250s
 46191 15970 infeasible   96               -  140.00000      -   302 1255s
 46370 15997  140.00000   91  316          -  140.00000      -   303 1260s
 46521 16038 infeasible   82               -  140.00000      -   303 1265s
 46755 16100  140.00000   98  105          -  140.00000      -   303 1270s
 47060 16107 infeasible  110               -  140.00000      -   302 1275s
 47343 16102  140.00000   87  236          -  140.00000      -   302 1280s
 47581 16104  140.00000   86  316          -  140.00000      -   302 1285s
 47727 16164 infeasible   89               -  140.00000      -   302 1290s
 47847 16196  140.00000   90  286          -  140.00000      -   302 1295s
 47942 16225  140.00000   92  238          -  140.00000      -   303 1300s
H48046 16257                     133.0000000  140.00000  5.26%   303 1308s
H48046 16203                     138.0000000  140.00000  1.45%   303 1308s
H48072 14968                     139.0000000  140.00000  0.72%   303 1309s
 48076 14969  140.00000   53  137  139.00000  140.00000  0.72%   303 1310s
 48082 14973  140.00000   49  133  139.00000  140.00000  0.72%   303 1315s
 48092 14980  140.00000   91  133  139.00000  140.00000  0.72%   303 1320s
 48196 15041  140.00000   74  190  139.00000  140.00000  0.72%   304 1325s
 48328 15105  140.00000   71  154  139.00000  140.00000  0.72%   303 1330s
 48509 15190  140.00000  101  169  139.00000  140.00000  0.72%   302 1335s
 48711 15235  140.00000   70  145  139.00000  140.00000  0.72%   302 1340s
H48723 14028                     140.0000000  140.00000  0.00%   302 1340s

Cutting planes:
  Gomory: 3
  Cover: 1
  MIR: 1
  Flow cover: 2
  Zero half: 3
  RLT: 31
  BQP: 29

Explored 48724 nodes (14803504 simplex iterations) in 1340.21 seconds (1522.62 work units)
Thread count was 1 (of 8 available processors)

Solution count 5: 140 140 139 ... 133

Optimal solution found (tolerance 1.00e-03)
Best objective 1.400000000000e+02, best bound 1.400000000000e+02, gap 0.0000%
